0 80 55 83 63 76 78 50 90 54 96 90 50 89 65 78 50 85 69 83 83 55 67 74 61 97 60 61 67 58 89 56 99 61 85 68 73 73 82 90 62 76 78 93 86 80 87 93 78 83 68 96 66 91 59 61 99 57 65 93 72 92 82 92 59 75 85 76 75 64 88 84 84 97 66 82 80 57 